
  22   10
  10   10   10   10   10   10   10   10   10   10

   0   0   0   0   0   0   0   0   0   0   0   4 2 3 12 21 
  10  10  10  10  10  10  10  10  10  10  10   2 20 4 
   4  10  10  10  10  10  10  10  10  10  10   2 20 6 
  10  10  10  10  10  10  10  10  10  10  10   1 5 
   1  10  10  10  10  10  10  10  10  10  10   1 6 
   1  10  10  10  10  10  10  10  10  10  10   1 7 
  10  10  10  10  10  10  10  10  10  10  10   1 8 
   4  10  10  10  10  10  10  10  10  10  10   1 9 
   1  10  10  10  10  10  10  10  10  10  10   2 16 10 
   7  10  10  10  10  10  10  10  10  10  10   1 11 
   1  10  10  10  10  10  10  10  10  10  10   2 19 13 
   7  10  10  10  10  10  10  10  10  10  10   1 13 
   2  10  10  10  10  10  10  10  10  10  10   1 14 
   6  10  10  10  10  10  10  10  10  10  10   1 15 
   6  10  10  10  10  10  10  10  10  10  10   1 17 
   7  10  10  10  10  10  10  10  10  10  10   1 17 
   3  10  10  10  10  10  10  10  10  10  10   1 18 
   1  10  10  10  10  10  10  10  10  10  10   1 22
   9  10  10  10  10  10  10  10  10  10  10   1 22
   2  10  10  10  10  10  10  10  10  10  10   1 22
   7  10  10  10  10  10  10  10  10  10  10   1 22
   0   0   0   0   0   0   0   0   0   0   0   0 
